LatticeConstant 1.0 Ang
%block LatticeVectors
 8.78000000 0.00000000 0.00000000
 0.00000000 15.12000000 0.00000000
 0.00000000 0.00000000 19.24000000
%endblock LatticeVectors

NumberOfAtoms 96
AtomicCoordinatesFormat Ang
%block AtomicCoordinatesAndAtomicSpecies
  1.68282000  1.89041000  4.81016000 1 #  1: Ti
  1.68241000  0.00051000  7.20942000 1 #  2: Ti
  0.16257000  0.00050000 -0.01554000 1 #  3: Ti
  0.16277000  1.89034000  2.41583000 1 #  4: Ti
  2.03054000  1.89028000  6.82255000 2 #  5: O
  2.03110000  0.00060000  5.19708000 2 #  6: O
  1.89272000  0.00043000  9.01868000 2 #  7: O
  0.09271000  0.00035000  1.97466000 2 #  8: O
  0.09287000  1.89035000  0.42627000 2 #  9: O
  1.89273000  1.89037000  3.00104000 2 # 10: O
  1.68282000  1.89041000 14.43016000 1 # 11: Ti
  1.68241000  0.00051000 16.82942000 1 # 12: Ti
  0.16257000  0.00050000  9.60446000 1 # 13: Ti
  0.16277000  1.89034000 12.03583000 1 # 14: Ti
  2.03054000  1.89028000 16.44255000 2 # 15: O
  2.03110000  0.00060000 14.81708000 2 # 16: O
  1.89272000  0.00043000 18.63868000 2 # 17: O
  0.09271000  0.00035000 11.59466000 2 # 18: O
  0.09287000  1.89035000 10.04627000 2 # 19: O
  1.89273000  1.89037000 12.62104000 2 # 20: O
  1.68282000  5.67041000  4.81016000 1 # 21: Ti
  1.68241000  3.78051000  7.20942000 1 # 22: Ti
  0.16257000  3.78050000 -0.01554000 1 # 23: Ti
  0.16277000  5.67034000  2.41583000 1 # 24: Ti
  2.03054000  5.67028000  6.82255000 2 # 25: O
  2.03110000  3.78060000  5.19708000 2 # 26: O
  1.89272000  3.78043000  9.01868000 2 # 27: O
  0.09271000  3.78035000  1.97466000 2 # 28: O
  0.09287000  5.67035000  0.42627000 2 # 29: O
  1.89273000  5.67037000  3.00104000 2 # 30: O
  1.68282000  5.67041000 14.43016000 1 # 31: Ti
  1.68241000  3.78051000 16.82942000 1 # 32: Ti
  0.16257000  3.78050000  9.60446000 1 # 33: Ti
  0.16277000  5.67034000 12.03583000 1 # 34: Ti
  2.03054000  5.67028000 16.44255000 2 # 35: O
  2.03110000  3.78060000 14.81708000 2 # 36: O
  1.89272000  3.78043000 18.63868000 2 # 37: O
  0.09271000  3.78035000 11.59466000 2 # 38: O
  0.09287000  5.67035000 10.04627000 2 # 39: O
  1.89273000  5.67037000 12.62104000 2 # 40: O
  1.68282000  9.45041000  4.81016000 1 # 41: Ti
  1.68241000  7.56051000  7.20942000 1 # 42: Ti
  0.16257000  7.56050000 -0.01554000 1 # 43: Ti
  0.16277000  9.45034000  2.41583000 1 # 44: Ti
  2.03054000  9.45028000  6.82255000 2 # 45: O
  2.03110000  7.56060000  5.19708000 2 # 46: O
  1.89272000  7.56043000  9.01868000 2 # 47: O
  0.09271000  7.56035000  1.97466000 2 # 48: O
  0.09287000  9.45035000  0.42627000 2 # 49: O
  1.89273000  9.45037000  3.00104000 2 # 50: O
  1.68282000  9.45041000 14.43016000 1 # 51: Ti
  1.68241000  7.56051000 16.82942000 1 # 52: Ti
  0.16257000  7.56050000  9.60446000 1 # 53: Ti
  0.16277000  9.45034000 12.03583000 1 # 54: Ti
  2.03054000  9.45028000 16.44255000 2 # 55: O
  2.03110000  7.56060000 14.81708000 2 # 56: O
  1.89272000  7.56043000 18.63868000 2 # 57: O
  0.09271000  7.56035000 11.59466000 2 # 58: O
  0.09287000  9.45035000 10.04627000 2 # 59: O
  1.89273000  9.45037000 12.62104000 2 # 60: O
  1.68282000 13.23041000  4.81016000 1 # 61: Ti
  1.68241000 11.34051000  7.20942000 1 # 62: Ti
  0.16257000 11.34050000 -0.01554000 1 # 63: Ti
  0.16277000 13.23034000  2.41583000 1 # 64: Ti
  2.03054000 13.23028000  6.82255000 2 # 65: O
  2.03110000 11.34060000  5.19708000 2 # 66: O
  1.89272000 11.34043000  9.01868000 2 # 67: O
  0.09271000 11.34035000  1.97466000 2 # 68: O
  0.09287000 13.23035000  0.42627000 2 # 69: O
  1.89273000 13.23037000  3.00104000 2 # 70: O
  1.68282000 13.23041000 14.43016000 1 # 71: Ti
  1.68241000 11.34051000 16.82942000 1 # 72: Ti
  0.16257000 11.34050000  9.60446000 1 # 73: Ti
  0.16277000 13.23034000 12.03583000 1 # 74: Ti
  2.03054000 13.23028000 16.44255000 2 # 75: O
  2.03110000 11.34060000 14.81708000 2 # 76: O
  1.89272000 11.34043000 18.63868000 2 # 77: O
  0.09271000 11.34035000 11.59466000 2 # 78: O
  0.09287000 13.23035000 10.04627000 2 # 79: O
  1.89273000 13.23037000 12.62104000 2 # 80: O
  4.18657000  3.81872000  4.07400000 3 # 81: Au
  5.79094000  5.88640000  4.18517000 3 # 82: Au
  5.80907000  4.05502000  6.13942000 3 # 83: Au
  3.54829000  5.60219000  5.85684000 3 # 84: Au
  4.33351000  8.01617000  4.93680000 3 # 85: Au
  6.37352000  9.99437000  5.21458000 3 # 86: Au
  6.75732000  7.49872000  5.95185000 3 # 87: Au
  4.50214000  9.79725000  6.95364000 3 # 88: Au
  4.36519000  4.68065000  8.30777000 3 # 89: Au
  6.78745000  5.75773000  7.85071000 3 # 90: Au
  6.38988000  4.98790000 10.34251000 3 # 91: Au
  4.47498000  6.67048000 10.12013000 3 # 92: Au
  3.72842000  7.40066000  7.69847000 3 # 93: Au
  7.01017000  9.35207000  7.84773000 3 # 94: Au
  7.02986000  7.56379000  9.77122000 3 # 95: Au
  4.80113000  9.17763000  9.49148000 3 # 96: Au
%endblock AtomicCoordinatesAndAtomicSpecies

NumberOfSpecies 3
%block ChemicalSpeciesLabel
 1 22 Ti
 2 8 O
 3 79 Au
%endblock ChemicalSpeciesLabel


%block GeometryConstraints
      position from 1 to 80
%endblock GeometryConstraints
