LatticeConstant 1.0 Ang
%block LatticeVectors
 40.0000000 0.00000000 0.00000000
 0.00000000 40.0000000 0.00000000
 0.00000000 0.00000000 40.00000000
%endblock LatticeVectors

NumberOfAtoms 16
AtomicCoordinatesFormat Ang
%block AtomicCoordinatesAndAtomicSpecies
  4.18657000  3.81872000  4.07400000 1 # 1: Au
  5.79094000  5.88640000  4.18517000 1 # 2: Au
  5.80907000  4.05502000  6.13942000 1 # 3: Au
  3.54829000  5.60219000  5.85684000 1 # 4: Au
  4.33351000  8.01617000  4.93680000 1 # 5: Au
  6.37352000  9.99437000  5.21458000 1 # 6: Au
  6.75732000  7.49872000  5.95185000 1 # 7: Au
  4.50214000  9.79725000  6.95364000 1 # 8: Au
  4.36519000  4.68065000  8.30777000 1 # 9: Au
  6.78745000  5.75773000  7.85071000 1 # 10: Au
  6.38988000  4.98790000 10.34251000 1 # 11: Au
  4.47498000  6.67048000 10.12013000 1 # 12: Au
  3.72842000  7.40066000  7.69847000 1 # 13: Au
  7.01017000  9.35207000  7.84773000 1 # 14: Au
  7.02986000  7.56379000  9.77122000 1 # 15: Au
  4.80113000  9.17763000  9.49148000 1 # 16: Au
%endblock AtomicCoordinatesAndAtomicSpecies

NumberOfSpecies 1
%block ChemicalSpeciesLabel
 1 79 Au
%endblock ChemicalSpeciesLabel

